135 5
10 10 10 10 10 

0 0 0 0 0 0 2 2 14 
0 0 0 0 0 0 3 3 6 8 
7 0 0 1 0 0 1 4 
9 0 0 5 0 0 2 5 54 
3 0 0 3 0 0 1 7 
3 0 0 3 0 0 1 7 
7 0 0 2 0 0 2 12 9 
4 0 0 2 0 0 2 12 10 
3 0 0 2 0 0 1 10 
9 0 0 3 0 0 1 11 
9 0 0 1 0 0 1 13 
9 0 0 3 0 0 1 13 
0 0 0 0 0 0 1 26 
0 0 0 0 0 0 3 15 19 22 
5 0 1 0 0 0 1 16 
9 0 1 0 0 0 1 17 
8 0 3 0 0 0 2 24 18 
7 0 1 0 0 0 2 20 81 
4 0 5 0 0 0 2 24 23 
1 0 2 0 0 0 1 21 
5 0 5 0 0 0 1 23 
8 0 2 0 0 0 1 23 
2 0 1 0 0 0 1 25 
6 0 4 0 0 0 1 25 
0 0 0 0 0 0 1 26 
0 0 0 0 0 0 2 27 39 
0 0 0 0 0 0 1 28 
5 0 0 0 1 0 1 29 
6 0 0 0 1 0 2 37 30 
1 0 0 0 7 0 2 34 31 
9 0 0 0 3 0 2 36 32 
6 0 0 0 2 0 1 33 
5 0 0 0 3 0 1 35 
8 0 0 0 2 0 1 35 
6 0 0 0 2 0 1 38 
10 0 0 0 2 0 1 38 
3 0 0 0 2 0 1 38 
0 0 0 0 0 0 1 51 
0 0 0 0 0 0 1 40 
2 1 0 0 0 0 2 47 41 
4 2 0 0 0 0 1 42 
10 2 0 0 0 0 1 43 
7 4 0 0 0 0 2 46 44 
2 3 0 0 0 0 2 48 45 
7 4 0 0 0 0 1 49 
9 4 0 0 0 0 1 48 
6 1 0 0 0 0 1 48 
5 2 0 0 0 0 1 50 
2 2 0 0 0 0 1 50 
0 0 0 0 0 0 1 51 
0 0 0 0 0 0 2 52 64 
0 0 0 0 0 0 1 53 
4 0 0 0 1 0 2 62 54 
7 0 0 0 1 0 1 55 
10 0 0 0 2 0 1 56 
10 0 0 0 2 0 3 61 60 57 
4 0 0 0 5 0 1 58 
7 0 0 0 4 0 1 59 
9 0 0 0 1 0 1 63 
8 0 0 0 3 0 1 63 
2 0 0 0 4 0 1 63 
7 0 0 0 2 0 1 63 
0 0 0 0 0 0 1 76 
0 0 0 0 0 0 2 65 67 
6 0 0 0 1 0 2 71 66 
4 0 0 0 5 0 1 68 
9 0 0 0 1 0 1 68 
6 0 0 0 2 0 1 69 
8 0 0 0 3 0 1 70 
6 0 0 0 1 0 1 72 
3 0 0 0 2 0 1 72 
7 0 0 0 5 0 2 74 73 
6 0 0 0 3 0 1 75 
7 0 0 0 2 0 1 75 
0 0 0 0 0 0 1 76 
0 0 0 0 0 0 2 77 89 
0 0 0 0 0 0 2 78 81 
6 0 0 1 0 0 2 84 79 
10 0 0 2 0 0 1 80 
2 0 0 2 0 0 2 86 82 
7 0 0 5 0 0 2 85 84 
5 0 0 1 0 0 1 83 
2 0 0 4 0 0 1 85 
3 0 0 1 0 0 1 86 
8 0 0 3 0 0 1 87 
5 0 0 2 0 0 1 87 
9 0 0 4 0 0 1 88 
0 0 0 0 0 0 2 111 123 
0 0 0 0 0 0 1 90 
3 0 1 0 0 1 2 94 91 
2 0 4 0 0 9 2 96 92 
4 0 2 0 0 2 1 93 
2 0 1 0 0 2 1 95 
10 0 3 0 0 2 1 95 
2 0 2 0 0 2 2 100 97 
4 0 1 0 0 1 1 97 
4 0 2 0 0 7 2 104 98 
3 0 5 0 0 3 1 99 
10 0 3 0 0 2 1 101 
3 0 2 0 0 2 1 101 
4 0 2 0 0 4 2 109 102 
6 0 4 0 0 2 1 103 
5 0 3 0 0 2 1 105 
3 0 1 0 0 1 1 105 
7 0 5 0 0 2 1 106 
10 0 2 0 0 1 1 107 
1 0 2 0 0 1 1 108 
7 0 2 0 0 3 1 110 
4 0 3 0 0 1 1 110 
0 0 0 0 0 0 1 135 
0 0 0 0 0 0 1 112 
10 0 0 1 0 0 3 121 117 113 
8 0 0 4 0 0 2 120 114 
2 0 0 4 0 0 1 115 
7 0 0 2 0 0 1 116 
8 0 0 3 0 0 1 118 
3 0 0 2 0 0 1 118 
8 0 0 3 0 0 1 119 
8 0 0 2 0 0 1 122 
3 0 0 1 0 0 1 122 
8 0 0 3 0 0 1 122 
0 0 0 0 0 0 1 135 
0 0 0 0 0 0 1 124 
6 0 0 1 0 0 1 125 
4 0 0 3 0 0 2 130 126 
9 0 0 3 0 0 2 133 127 
6 0 0 2 0 0 2 132 128 
6 0 0 1 0 0 1 129 
1 0 0 2 0 0 1 131 
7 0 0 6 0 0 1 132 
10 0 0 2 0 0 1 134 
1 0 0 1 0 0 1 134 
8 0 0 4 0 0 1 134 
0 0 0 0 0 0 1 135 
0 0 0 0 0 0 0 
